17	4
14	15	9	18	
0	0	0	0	0	3	2	3	4	
1	0	0	0	10	3	7	15	17	
6	0	0	0	7	2	9	17	
8	0	0	0	4	3	5	10	11	
1	0	0	0	7	3	6	8	16	
75	0	0	8	0	1	17	
125	0	0	0	7	1	12	
150	0	0	0	5	3	17	17	17	
200	0	4	0	0	1	17	
175	3	0	0	0	3	13	14	17	
125	8	0	0	0	2	17	17	
150	0	0	0	10	2	17	17	
8	0	4	0	0	2	15	17	
5	10	0	0	0	2	16	17	
6	0	0	8	0	1	17	
5	7	0	0	0	1	17	
0	0	0	0	0	0	
